10  5
 3  5  0  8  2  8  1  8  4 14   9 181  10
 0  6  3 11  2  8  1 10  4 10   8 174  10
 0  8  1 10  2 13  3  3  4 16   0 180   5
 1  4  0  9  2  9  3  9  4 14  17 179  10
 0  6  3  5  2 15  1  9  4 11   5 167   5
 0  8  1 10  2 12  3 11  4 16  14 184   5
 1 11  0 10  2 12  3  5  4 15   0 172  10
 1  4  0  8  2 16  3 11  4 15   9 166  10
 1  4  0 10  2 16  3 11  4  9   8 174   5
 0  9  1  8  2 13  3  7  4 13  12 169   5
